param n_steel_quant := 1000;
param mn_percent := 0.45;
param si_min := 3.25;
param si_max := 5.0;
param mang_price := 8.0;
param sell_price := 0.45;
param melt_price := 0.005;

param contsi :=
1 4.0
2 1.0
3 0.6;

param contmn :=
1 0.45
2 0.50
3 0.40;

param cost :=
1 21
2 25
3 15;
